(set-logic HORN)
(set-info :source |
    Benchmark: C_VC
    Output by Princess (http://www.philipp.ruemmer.org/princess.shtml)
|)
(set-info :status unknown)
(declare-fun inv_main17 (Int Int Int Int Int Int) Bool)
(declare-fun inv_main19 (Int Int Int Int Int Int) Bool)
(declare-fun inv_main20 (Int Int Int Int Int Int) Bool)
(declare-fun inv_main21 (Int Int Int Int Int Int) Bool)
(declare-fun inv_main22 (Int Int Int Int Int Int) Bool)
(declare-fun inv_main23 (Int Int Int Int Int Int) Bool)
(declare-fun inv_main24 (Int Int Int Int Int Int) Bool)
(declare-fun inv_main29 (Int Int Int Int Int Int) Bool)
(declare-fun inv_main3 (Int Int Int Int Int Int) Bool)
(declare-fun inv_main31 (Int Int Int Int Int Int) Bool)
(declare-fun inv_main32 (Int Int Int Int Int Int) Bool)
(declare-fun inv_main33 (Int Int Int Int Int Int) Bool)
(declare-fun inv_main34 (Int Int Int Int Int Int) Bool)
(declare-fun inv_main35 (Int Int Int Int Int Int) Bool)
(declare-fun inv_main37 (Int Int Int Int Int Int) Bool)
(declare-fun inv_main38 (Int Int Int Int Int Int) Bool)
(declare-fun inv_main39 (Int Int Int Int Int Int) Bool)
(declare-fun inv_main40 (Int Int Int Int Int Int) Bool)
(declare-fun inv_main41 (Int Int Int Int Int Int) Bool)
(declare-fun inv_main42 (Int Int Int Int Int Int) Bool)
(declare-fun inv_main43 (Int Int Int Int Int Int) Bool)
(declare-fun inv_main45 (Int Int Int Int Int Int) Bool)
(declare-fun inv_main46 (Int Int Int Int Int Int) Bool)
(declare-fun inv_main47 (Int Int Int Int Int Int) Bool)
(declare-fun inv_main48 (Int Int Int Int Int Int) Bool)
(declare-fun inv_main49 (Int Int Int Int Int Int) Bool)
(declare-fun inv_main50 (Int Int Int Int Int Int) Bool)
(declare-fun inv_main6 (Int Int Int Int Int Int) Bool)
(declare-fun inv_main9 (Int Int Int Int Int Int) Bool)
(assert (forall ((var0 Int)) (forall ((var1 Int)) (forall ((var2 Int)) (forall ((var3 Int)) (forall ((var4 Int)) (inv_main3 0 var4 var3 var1 var0 var2 ) ) ) ) ) ) )
(assert (forall ((var0 Int)) (forall ((var1 Int)) (forall ((var2 Int)) (forall ((var3 Int)) (forall ((var4 Int)) (forall ((var5 Int)) (or (not (inv_main17 var2 var1 var4 var5 var0 var3 ) ) (inv_main19 var2 var1 var4 var5 var0 var3 ) ) ) ) ) ) ) ) )
(assert (forall ((var0 Int)) (forall ((var1 Int)) (forall ((var2 Int)) (forall ((var3 Int)) (forall ((var4 Int)) (forall ((var5 Int)) (or (not (inv_main19 var2 var1 var4 var5 var0 var3 ) ) (inv_main20 var2 var1 var4 var5 var0 var3 ) ) ) ) ) ) ) ) )
(assert (forall ((var0 Int)) (forall ((var1 Int)) (forall ((var2 Int)) (forall ((var3 Int)) (forall ((var4 Int)) (forall ((var5 Int)) (or (not (inv_main20 var2 var1 var4 var5 var0 var3 ) ) (inv_main21 var2 var1 var4 var5 var0 var3 ) ) ) ) ) ) ) ) )
(assert (forall ((var0 Int)) (forall ((var1 Int)) (forall ((var2 Int)) (forall ((var3 Int)) (forall ((var4 Int)) (forall ((var5 Int)) (or (not (inv_main21 var2 var1 var4 var5 var0 var3 ) ) (inv_main22 var2 var1 var4 var5 var0 var3 ) ) ) ) ) ) ) ) )
(assert (forall ((var0 Int)) (forall ((var1 Int)) (forall ((var2 Int)) (forall ((var3 Int)) (forall ((var4 Int)) (forall ((var5 Int)) (or (not (inv_main22 var2 var1 var4 var5 var0 var3 ) ) (inv_main23 var2 var1 var4 var5 var0 var3 ) ) ) ) ) ) ) ) )
(assert (forall ((var0 Int)) (forall ((var1 Int)) (forall ((var2 Int)) (forall ((var3 Int)) (forall ((var4 Int)) (forall ((var5 Int)) (or (not (inv_main29 var2 var1 var4 var5 var0 var3 ) ) (inv_main31 var2 var1 var4 var5 var0 var3 ) ) ) ) ) ) ) ) )
(assert (forall ((var0 Int)) (forall ((var1 Int)) (forall ((var2 Int)) (forall ((var3 Int)) (forall ((var4 Int)) (forall ((var5 Int)) (or (not (inv_main31 var2 var1 var4 var5 var0 var3 ) ) (inv_main32 var2 var1 var4 var5 var0 var3 ) ) ) ) ) ) ) ) )
(assert (forall ((var0 Int)) (forall ((var1 Int)) (forall ((var2 Int)) (forall ((var3 Int)) (forall ((var4 Int)) (forall ((var5 Int)) (or (not (inv_main32 var2 var1 var4 var5 var0 var3 ) ) (inv_main33 var2 var1 var4 var5 var0 var3 ) ) ) ) ) ) ) ) )
(assert (forall ((var0 Int)) (forall ((var1 Int)) (forall ((var2 Int)) (forall ((var3 Int)) (forall ((var4 Int)) (forall ((var5 Int)) (or (not (and (inv_main34 var2 var1 var4 var5 var0 var3 ) (<= 0 (+ var1 (* (- 1) var0 ) ) ) ) ) (inv_main35 var2 var1 var4 var5 var0 var3 ) ) ) ) ) ) ) ) )
(assert (forall ((var0 Int)) (forall ((var1 Int)) (forall ((var2 Int)) (forall ((var3 Int)) (forall ((var4 Int)) (forall ((var5 Int)) (or (not (inv_main35 var2 var1 var4 var5 var0 var3 ) ) (inv_main37 var2 var1 var4 var5 var0 var3 ) ) ) ) ) ) ) ) )
(assert (forall ((var0 Int)) (forall ((var1 Int)) (forall ((var2 Int)) (forall ((var3 Int)) (forall ((var4 Int)) (forall ((var5 Int)) (or (not (inv_main37 var2 var1 var4 var5 var0 var3 ) ) (inv_main38 var2 var1 var4 var5 var0 var3 ) ) ) ) ) ) ) ) )
(assert (forall ((var0 Int)) (forall ((var1 Int)) (forall ((var2 Int)) (forall ((var3 Int)) (forall ((var4 Int)) (forall ((var5 Int)) (or (not (inv_main38 var2 var1 var4 var5 var0 var3 ) ) (inv_main39 var2 var1 var4 var5 var0 var3 ) ) ) ) ) ) ) ) )
(assert (forall ((var0 Int)) (forall ((var1 Int)) (forall ((var2 Int)) (forall ((var3 Int)) (forall ((var4 Int)) (forall ((var5 Int)) (or (not (inv_main39 var2 var1 var4 var5 var0 var3 ) ) (inv_main40 var2 var1 var4 var5 var0 var3 ) ) ) ) ) ) ) ) )
(assert (forall ((var0 Int)) (forall ((var1 Int)) (forall ((var2 Int)) (forall ((var3 Int)) (forall ((var4 Int)) (forall ((var5 Int)) (or (not (inv_main40 var2 var1 var4 var5 var0 var3 ) ) (inv_main41 var2 var1 var4 var5 var0 var3 ) ) ) ) ) ) ) ) )
(assert (forall ((var0 Int)) (forall ((var1 Int)) (forall ((var2 Int)) (forall ((var3 Int)) (forall ((var4 Int)) (forall ((var5 Int)) (or (not (and (inv_main42 var2 var1 var4 var5 var0 var3 ) (<= 0 (+ var1 (* (- 1) var5 ) ) ) ) ) (inv_main43 var2 var1 var4 var5 var0 var3 ) ) ) ) ) ) ) ) )
(assert (forall ((var0 Int)) (forall ((var1 Int)) (forall ((var2 Int)) (forall ((var3 Int)) (forall ((var4 Int)) (forall ((var5 Int)) (or (not (and (inv_main42 var2 var1 var4 var5 var0 var3 ) (not (<= 0 (+ var1 (* (- 1) var5 ) ) ) ) ) ) (inv_main9 var2 var1 var4 var5 var0 var3 ) ) ) ) ) ) ) ) )
(assert (forall ((var0 Int)) (forall ((var1 Int)) (forall ((var2 Int)) (forall ((var3 Int)) (forall ((var4 Int)) (forall ((var5 Int)) (or (not (inv_main43 var2 var1 var4 var5 var0 var3 ) ) (inv_main45 var2 var1 var4 var5 var0 var3 ) ) ) ) ) ) ) ) )
(assert (forall ((var0 Int)) (forall ((var1 Int)) (forall ((var2 Int)) (forall ((var3 Int)) (forall ((var4 Int)) (forall ((var5 Int)) (or (not (inv_main45 var2 var1 var4 var5 var0 var3 ) ) (inv_main46 var2 var1 var4 var5 var0 var3 ) ) ) ) ) ) ) ) )
(assert (forall ((var0 Int)) (forall ((var1 Int)) (forall ((var2 Int)) (forall ((var3 Int)) (forall ((var4 Int)) (forall ((var5 Int)) (or (not (inv_main46 var2 var1 var4 var5 var0 var3 ) ) (inv_main47 var2 var1 var4 var5 var0 var3 ) ) ) ) ) ) ) ) )
(assert (forall ((var0 Int)) (forall ((var1 Int)) (forall ((var2 Int)) (forall ((var3 Int)) (forall ((var4 Int)) (forall ((var5 Int)) (or (not (inv_main9 var2 var1 var4 var5 var0 var3 ) ) (inv_main48 var2 var1 var4 var5 var0 var3 ) ) ) ) ) ) ) ) )
(assert (forall ((var0 Int)) (forall ((var1 Int)) (forall ((var2 Int)) (forall ((var3 Int)) (forall ((var4 Int)) (forall ((var5 Int)) (or (not (inv_main48 var2 var1 var4 var5 var0 var3 ) ) (inv_main49 var2 var1 var4 var5 var0 var3 ) ) ) ) ) ) ) ) )
(assert (forall ((var0 Int)) (forall ((var1 Int)) (forall ((var2 Int)) (forall ((var3 Int)) (forall ((var4 Int)) (forall ((var5 Int)) (or (not (inv_main49 var2 var1 var4 var5 var0 var3 ) ) (inv_main50 var2 var1 var4 var5 var0 var3 ) ) ) ) ) ) ) ) )
(assert (forall ((var0 Int)) (forall ((var1 Int)) (forall ((var2 Int)) (forall ((var3 Int)) (forall ((var4 Int)) (forall ((var5 Int)) (or (not (and (inv_main3 var2 var1 var4 var5 var0 var3 ) (<= 0 (+ var3 (- 1) ) ) ) ) (inv_main6 var2 var1 var1 var5 var0 var3 ) ) ) ) ) ) ) ) )
(assert (forall ((var0 Int)) (forall ((var1 Int)) (forall ((var2 Int)) (forall ((var3 Int)) (forall ((var4 Int)) (forall ((var5 Int)) (or (not (and (inv_main6 var2 var1 var4 var5 var0 var3 ) (and (not (<= 0 (+ (+ var1 (* (- 1) var4 ) ) (- 1) ) ) ) (<= 0 (+ var4 (- 1) ) ) ) ) ) (inv_main9 var2 var1 var4 var5 var0 var3 ) ) ) ) ) ) ) ) )
(assert (forall ((var0 Int)) (forall ((var1 Int)) (forall ((var2 Int)) (forall ((var3 Int)) (forall ((var4 Int)) (forall ((var5 Int)) (or (not (and (inv_main34 var2 var1 var4 var5 var0 var3 ) (not (<= 0 (+ var1 (* (- 1) var0 ) ) ) ) ) ) (inv_main24 var2 var1 var4 (+ var5 1 ) var0 var3 ) ) ) ) ) ) ) ) )
(assert (forall ((var0 Int)) (forall ((var1 Int)) (forall ((var2 Int)) (forall ((var3 Int)) (forall ((var4 Int)) (forall ((var5 Int)) (or (not (inv_main41 var2 var1 var4 var5 var0 var3 ) ) (inv_main34 var2 var1 var4 var5 (+ var0 1 ) var3 ) ) ) ) ) ) ) ) )
(assert (forall ((var0 Int)) (forall ((var1 Int)) (forall ((var2 Int)) (forall ((var3 Int)) (forall ((var4 Int)) (forall ((var5 Int)) (or (not (inv_main47 var2 var1 var4 var5 var0 var3 ) ) (inv_main42 var2 var1 var4 (+ var5 1 ) var0 var3 ) ) ) ) ) ) ) ) )
(assert (forall ((var0 Int)) (forall ((var1 Int)) (forall ((var2 Int)) (forall ((var3 Int)) (forall ((var4 Int)) (forall ((var5 Int)) (or (not (inv_main50 var2 var1 var4 var5 var0 var3 ) ) (inv_main6 var2 var1 (+ var4 (- 1) ) var5 var0 var4 ) ) ) ) ) ) ) ) )
(assert (forall ((var0 Int)) (forall ((var1 Int)) (forall ((var2 Int)) (forall ((var3 Int)) (forall ((var4 Int)) (forall ((var5 Int)) (or (not (and (inv_main6 var2 var1 var4 var5 var0 var3 ) (and (<= 0 (+ var1 (* (- 1) var3 ) ) ) (and (not (= var2 0 ) ) (and (<= 0 (+ (+ var1 (* (- 1) var4 ) ) (- 1) ) ) (<= 0 (+ var4 (- 1) ) ) ) ) ) ) ) (inv_main17 var2 var1 var4 var3 var0 var3 ) ) ) ) ) ) ) ) )
(assert (forall ((var0 Int)) (forall ((var1 Int)) (forall ((var2 Int)) (forall ((var3 Int)) (forall ((var4 Int)) (forall ((var5 Int)) (or (not (and (inv_main6 var2 var1 var4 var5 var0 var3 ) (and (not (<= 0 (+ var1 (* (- 1) var3 ) ) ) ) (and (not (= var2 0 ) ) (and (<= 0 (+ (+ var1 (* (- 1) var4 ) ) (- 1) ) ) (<= 0 (+ var4 (- 1) ) ) ) ) ) ) ) (inv_main24 var2 var1 var4 var3 var0 var3 ) ) ) ) ) ) ) ) )
(assert (forall ((var0 Int)) (forall ((var1 Int)) (forall ((var2 Int)) (forall ((var3 Int)) (forall ((var4 Int)) (forall ((var5 Int)) (or (not (and (inv_main23 var2 var1 var4 var5 var0 var3 ) (<= 0 (+ var1 (* (- 1) (+ var5 1 ) ) ) ) ) ) (inv_main17 var2 var1 var4 (+ var5 1 ) var0 var3 ) ) ) ) ) ) ) ) )
(assert (forall ((var0 Int)) (forall ((var1 Int)) (forall ((var2 Int)) (forall ((var3 Int)) (forall ((var4 Int)) (forall ((var5 Int)) (or (not (and (inv_main23 var2 var1 var4 var5 var0 var3 ) (not (<= 0 (+ var1 (* (- 1) (+ var5 1 ) ) ) ) ) ) ) (inv_main24 var2 var1 var4 var3 var0 var3 ) ) ) ) ) ) ) ) )
(assert (forall ((var0 Int)) (forall ((var1 Int)) (forall ((var2 Int)) (forall ((var3 Int)) (forall ((var4 Int)) (forall ((var5 Int)) (or (not (and (inv_main24 var2 var1 var4 var5 var0 var3 ) (not (<= 0 (+ var1 (* (- 1) var5 ) ) ) ) ) ) (inv_main42 var2 var1 var4 var3 var0 var3 ) ) ) ) ) ) ) ) )
(assert (forall ((var0 Int)) (forall ((var1 Int)) (forall ((var2 Int)) (forall ((var3 Int)) (forall ((var4 Int)) (forall ((var5 Int)) (or (not (and (inv_main6 var2 var1 var4 var5 var0 var3 ) (and (= var2 0 ) (and (<= 0 (+ (+ var1 (* (- 1) var4 ) ) (- 1) ) ) (<= 0 (+ var4 (- 1) ) ) ) ) ) ) (inv_main42 var2 var1 var4 var3 var0 var3 ) ) ) ) ) ) ) ) )
(assert (forall ((var0 Int)) (forall ((var1 Int)) (forall ((var2 Int)) (forall ((var3 Int)) (forall ((var4 Int)) (forall ((var5 Int)) (or (not (and (inv_main24 var2 var1 var4 var5 var0 var3 ) (and (<= 0 (+ var1 (* (- 1) var3 ) ) ) (<= 0 (+ var1 (* (- 1) var5 ) ) ) ) ) ) (inv_main29 var2 var1 var4 var5 var3 var3 ) ) ) ) ) ) ) ) )
(assert (forall ((var0 Int)) (forall ((var1 Int)) (forall ((var2 Int)) (forall ((var3 Int)) (forall ((var4 Int)) (forall ((var5 Int)) (or (not (and (inv_main24 var2 var1 var4 var5 var0 var3 ) (and (not (<= 0 (+ var1 (* (- 1) var3 ) ) ) ) (<= 0 (+ var1 (* (- 1) var5 ) ) ) ) ) ) (inv_main34 var2 var1 var4 var5 var3 var3 ) ) ) ) ) ) ) ) )
(assert (forall ((var0 Int)) (forall ((var1 Int)) (forall ((var2 Int)) (forall ((var3 Int)) (forall ((var4 Int)) (forall ((var5 Int)) (or (not (and (inv_main33 var2 var1 var4 var5 var0 var3 ) (<= 0 (+ var1 (* (- 1) (+ var0 1 ) ) ) ) ) ) (inv_main29 var2 var1 var4 var5 (+ var0 1 ) var3 ) ) ) ) ) ) ) ) )
(assert (forall ((var0 Int)) (forall ((var1 Int)) (forall ((var2 Int)) (forall ((var3 Int)) (forall ((var4 Int)) (forall ((var5 Int)) (or (not (and (inv_main33 var2 var1 var4 var5 var0 var3 ) (not (<= 0 (+ var1 (* (- 1) (+ var0 1 ) ) ) ) ) ) ) (inv_main34 var2 var1 var4 var5 var3 var3 ) ) ) ) ) ) ) ) )
(assert (forall ((var0 Int)) (forall ((var1 Int)) (forall ((var2 Int)) (forall ((var3 Int)) (forall ((var4 Int)) (forall ((var5 Int)) (not (and (inv_main17 var2 var1 var4 var5 var0 var3 ) (not (<= 0 (+ var5 (- 1) ) ) ) ) ) ) ) ) ) ) ) )
(assert (forall ((var0 Int)) (forall ((var1 Int)) (forall ((var2 Int)) (forall ((var3 Int)) (forall ((var4 Int)) (forall ((var5 Int)) (not (and (inv_main19 var2 var1 var4 var5 var0 var3 ) (not (<= 0 (+ var1 (* (- 1) var5 ) ) ) ) ) ) ) ) ) ) ) ) )
(assert (forall ((var0 Int)) (forall ((var1 Int)) (forall ((var2 Int)) (forall ((var3 Int)) (forall ((var4 Int)) (forall ((var5 Int)) (not (and (inv_main20 var2 var1 var4 var5 var0 var3 ) (not (<= 0 (+ var4 (- 1) ) ) ) ) ) ) ) ) ) ) ) )
(assert (forall ((var0 Int)) (forall ((var1 Int)) (forall ((var2 Int)) (forall ((var3 Int)) (forall ((var4 Int)) (forall ((var5 Int)) (not (and (inv_main21 var2 var1 var4 var5 var0 var3 ) (not (<= 0 (+ var1 (* (- 1) var4 ) ) ) ) ) ) ) ) ) ) ) ) )
(assert (forall ((var0 Int)) (forall ((var1 Int)) (forall ((var2 Int)) (forall ((var3 Int)) (forall ((var4 Int)) (forall ((var5 Int)) (not (and (inv_main22 var2 var1 var4 var5 var0 var3 ) (not (<= 0 (+ var3 (- 1) ) ) ) ) ) ) ) ) ) ) ) )
(assert (forall ((var0 Int)) (forall ((var1 Int)) (forall ((var2 Int)) (forall ((var3 Int)) (forall ((var4 Int)) (forall ((var5 Int)) (not (and (inv_main23 var2 var1 var4 var5 var0 var3 ) (not (<= 0 (+ var1 (* (- 1) var3 ) ) ) ) ) ) ) ) ) ) ) ) )
(assert (forall ((var0 Int)) (forall ((var1 Int)) (forall ((var2 Int)) (forall ((var3 Int)) (forall ((var4 Int)) (forall ((var5 Int)) (not (and (inv_main29 var2 var1 var4 var5 var0 var3 ) (not (<= 0 (+ var0 (- 1) ) ) ) ) ) ) ) ) ) ) ) )
(assert (forall ((var0 Int)) (forall ((var1 Int)) (forall ((var2 Int)) (forall ((var3 Int)) (forall ((var4 Int)) (forall ((var5 Int)) (not (and (inv_main31 var2 var1 var4 var5 var0 var3 ) (not (<= 0 (+ var1 (* (- 1) var0 ) ) ) ) ) ) ) ) ) ) ) ) )
(assert (forall ((var0 Int)) (forall ((var1 Int)) (forall ((var2 Int)) (forall ((var3 Int)) (forall ((var4 Int)) (forall ((var5 Int)) (not (and (inv_main32 var2 var1 var4 var5 var0 var3 ) (not (<= 0 (+ var5 (- 1) ) ) ) ) ) ) ) ) ) ) ) )
(assert (forall ((var0 Int)) (forall ((var1 Int)) (forall ((var2 Int)) (forall ((var3 Int)) (forall ((var4 Int)) (forall ((var5 Int)) (not (and (inv_main33 var2 var1 var4 var5 var0 var3 ) (not (<= 0 (+ var1 (* (- 1) var5 ) ) ) ) ) ) ) ) ) ) ) ) )
(assert (forall ((var0 Int)) (forall ((var1 Int)) (forall ((var2 Int)) (forall ((var3 Int)) (forall ((var4 Int)) (forall ((var5 Int)) (not (and (inv_main35 var2 var1 var4 var5 var0 var3 ) (not (<= 0 (+ var0 (- 1) ) ) ) ) ) ) ) ) ) ) ) )
(assert (forall ((var0 Int)) (forall ((var1 Int)) (forall ((var2 Int)) (forall ((var3 Int)) (forall ((var4 Int)) (forall ((var5 Int)) (not (and (inv_main37 var2 var1 var4 var5 var0 var3 ) (not (<= 0 (+ var1 (* (- 1) var0 ) ) ) ) ) ) ) ) ) ) ) ) )
(assert (forall ((var0 Int)) (forall ((var1 Int)) (forall ((var2 Int)) (forall ((var3 Int)) (forall ((var4 Int)) (forall ((var5 Int)) (not (and (inv_main38 var2 var1 var4 var5 var0 var3 ) (not (<= 0 (+ var5 (- 1) ) ) ) ) ) ) ) ) ) ) ) )
(assert (forall ((var0 Int)) (forall ((var1 Int)) (forall ((var2 Int)) (forall ((var3 Int)) (forall ((var4 Int)) (forall ((var5 Int)) (not (and (inv_main39 var2 var1 var4 var5 var0 var3 ) (not (<= 0 (+ var1 (* (- 1) var5 ) ) ) ) ) ) ) ) ) ) ) ) )
(assert (forall ((var0 Int)) (forall ((var1 Int)) (forall ((var2 Int)) (forall ((var3 Int)) (forall ((var4 Int)) (forall ((var5 Int)) (not (and (inv_main40 var2 var1 var4 var5 var0 var3 ) (not (<= 0 (+ var4 (- 1) ) ) ) ) ) ) ) ) ) ) ) )
(assert (forall ((var0 Int)) (forall ((var1 Int)) (forall ((var2 Int)) (forall ((var3 Int)) (forall ((var4 Int)) (forall ((var5 Int)) (not (and (inv_main41 var2 var1 var4 var5 var0 var3 ) (not (<= 0 (+ var1 (* (- 1) var4 ) ) ) ) ) ) ) ) ) ) ) ) )
(assert (forall ((var0 Int)) (forall ((var1 Int)) (forall ((var2 Int)) (forall ((var3 Int)) (forall ((var4 Int)) (forall ((var5 Int)) (not (and (inv_main43 var2 var1 var4 var5 var0 var3 ) (not (<= 0 (+ var5 (- 1) ) ) ) ) ) ) ) ) ) ) ) )
(assert (forall ((var0 Int)) (forall ((var1 Int)) (forall ((var2 Int)) (forall ((var3 Int)) (forall ((var4 Int)) (forall ((var5 Int)) (not (and (inv_main45 var2 var1 var4 var5 var0 var3 ) (not (<= 0 (+ var1 (* (- 1) var5 ) ) ) ) ) ) ) ) ) ) ) ) )
(assert (forall ((var0 Int)) (forall ((var1 Int)) (forall ((var2 Int)) (forall ((var3 Int)) (forall ((var4 Int)) (forall ((var5 Int)) (not (and (inv_main46 var2 var1 var4 var5 var0 var3 ) (not (<= 0 (+ var4 (- 1) ) ) ) ) ) ) ) ) ) ) ) )
(assert (forall ((var0 Int)) (forall ((var1 Int)) (forall ((var2 Int)) (forall ((var3 Int)) (forall ((var4 Int)) (forall ((var5 Int)) (not (and (inv_main47 var2 var1 var4 var5 var0 var3 ) (not (<= 0 (+ var1 (* (- 1) var4 ) ) ) ) ) ) ) ) ) ) ) ) )
(assert (forall ((var0 Int)) (forall ((var1 Int)) (forall ((var2 Int)) (forall ((var3 Int)) (forall ((var4 Int)) (forall ((var5 Int)) (not (and (inv_main9 var2 var1 var4 var5 var0 var3 ) (not (<= 0 (+ var4 (- 1) ) ) ) ) ) ) ) ) ) ) ) )
(assert (forall ((var0 Int)) (forall ((var1 Int)) (forall ((var2 Int)) (forall ((var3 Int)) (forall ((var4 Int)) (forall ((var5 Int)) (not (and (inv_main48 var2 var1 var4 var5 var0 var3 ) (not (<= 0 (+ var1 (* (- 1) var4 ) ) ) ) ) ) ) ) ) ) ) ) )
(assert (forall ((var0 Int)) (forall ((var1 Int)) (forall ((var2 Int)) (forall ((var3 Int)) (forall ((var4 Int)) (forall ((var5 Int)) (not (and (inv_main49 var2 var1 var4 var5 var0 var3 ) (not (<= 0 (+ var4 (- 1) ) ) ) ) ) ) ) ) ) ) ) )
(assert (forall ((var0 Int)) (forall ((var1 Int)) (forall ((var2 Int)) (forall ((var3 Int)) (forall ((var4 Int)) (forall ((var5 Int)) (not (and (inv_main50 var2 var1 var4 var5 var0 var3 ) (not (<= 0 (+ var1 (* (- 1) var4 ) ) ) ) ) ) ) ) ) ) ) ) )
(check-sat)
